exemples/ieee/14_barras/dados/dispatch.lp
Minimize
 obj: 60 g_1_1 + 80 g_2_1 + 90 g_3_1 + 100 g_4_1 + 70 g_5_1 + 60 rup_1 + 80 rup_2 + 90 rup_3 + 100 rup_4 + 70 rup_5 + 60 rdown_1 + 80 rdown_2 + 90 rdown_3 + 100 rdown_4 + 70 rdown_5
Subject To
 c1: 1 f_1_1 <= 1e3
 c2: 1 f_2_1 <= 1e3
 c3: 1 f_3_1 <= 1e3
 c4: 1 f_4_1 <= 1e3
 c5: 1 f_5_1 <= 1e3
 c6: 1 f_6_1 <= 1e3
 c7: 1 f_7_1 <= 1e3
 c8: 1 f_8_1 <= 1e3
 c9: 1 f_9_1 <= 1e3
 c10: 1 f_10_1 <= 1e3
 c11: 1 f_11_1 <= 1e3
 c12: 1 f_12_1 <= 1e3
 c13: 1 f_13_1 <= 1e3
 c14: 1 f_14_1 <= 1e3
 c15: 1 f_15_1 <= 1e3
 c16: 1 f_16_1 <= 1e3
 c17: 1 f_17_1 <= 1e3
 c18: 1 f_18_1 <= 1e3
 c19: 1 f_19_1 <= 1e3
 c20: 1 f_20_1 <= 1e3
 c21: -1 f_1_1 <= 1e3
 c22: -1 f_2_1 <= 1e3
 c23: -1 f_3_1 <= 1e3
 c24: -1 f_4_1 <= 1e3
 c25: -1 f_5_1 <= 1e3
 c26: -1 f_6_1 <= 1e3
 c27: -1 f_7_1 <= 1e3
 c28: -1 f_8_1 <= 1e3
 c29: -1 f_9_1 <= 1e3
 c30: -1 f_10_1 <= 1e3
 c31: -1 f_11_1 <= 1e3
 c32: -1 f_12_1 <= 1e3
 c33: -1 f_13_1 <= 1e3
 c34: -1 f_14_1 <= 1e3
 c35: -1 f_15_1 <= 1e3
 c36: -1 f_16_1 <= 1e3
 c37: -1 f_17_1 <= 1e3
 c38: -1 f_18_1 <= 1e3
 c39: -1 f_19_1 <= 1e3
 c40: -1 f_20_1 <= 1e3
 c41: 1 f_1_1 - 16.900456312320433 theta_1_1 + 16.900456312320433 theta_2_1 = 0
 c42: 1 f_2_1 - 4.483500717360115 theta_1_1 + 4.483500717360115 theta_5_1 = 0
 c43: 1 f_3_1 - 5.051270394504217 theta_2_1 + 5.051270394504217 theta_3_1 = 0
 c44: 1 f_4_1 - 5.671506352087114 theta_2_1 + 5.671506352087114 theta_4_1 = 0
 c45: 1 f_5_1 - 5.751092707614447 theta_2_1 + 5.751092707614447 theta_5_1 = 0
 c46: 1 f_6_1 - 5.846927439630474 theta_3_1 + 5.846927439630474 theta_4_1 = 0
 c47: 1 f_7_1 - 23.747328425552123 theta_4_1 + 23.747328425552123 theta_5_1 = 0
 c48: 1 f_8_1 - 4.781943381790359 theta_4_1 + 4.781943381790359 theta_7_1 = 0
 c49: 1 f_9_1 - 1.7979790715236075 theta_4_1 + 1.7979790715236075 theta_9_1 = 0
 c50: 1 f_10_1 - 3.967939052456154 theta_5_1 + 3.967939052456154 theta_6_1 = 0
 c51: 1 f_11_1 - 5.027652086475616 theta_6_1 + 5.027652086475616 theta_11_1 = 0
 c52: 1 f_12_1 - 3.9091513232477233 theta_6_1 + 3.9091513232477233 theta_12_1 = 0
 c53: 1 f_13_1 - 7.676364473785216 theta_6_1 + 7.676364473785216 theta_13_1 = 0
 c54: 1 f_14_1 - 5.676979846721544 theta_7_1 + 5.676979846721544 theta_8_1 = 0
 c55: 1 f_15_1 - 9.09008271975275 theta_7_1 + 9.09008271975275 theta_9_1 = 0
 c56: 1 f_16_1 - 11.834319526627219 theta_9_1 + 11.834319526627219 theta_10_1 = 0
 c57: 1 f_17_1 - 3.698498409645684 theta_9_1 + 3.698498409645684 theta_14_1 = 0
 c58: 1 f_18_1 - 5.206435153850159 theta_10_1 + 5.206435153850159 theta_11_1 = 0
 c59: 1 f_19_1 - 5.003001801080648 theta_12_1 + 5.003001801080648 theta_13_1 = 0
 c60: 1 f_20_1 - 2.873398080570082 theta_13_1 + 2.873398080570082 theta_14_1 = 0
 c61: 1 g_1_1 + 1 rup_1 <= 160
 c62: 1 g_2_1 + 1 rup_2 <= 80
 c63: 1 g_3_1 + 1 rup_3 <= 50
 c64: 1 g_4_1 + 1 rup_4 <= 50
 c65: 1 g_5_1 + 1 rup_5 <= 50
 c66: -1 g_1_1 + 1 rdown_1 <= 0
 c67: -1 g_2_1 + 1 rdown_2 <= 0
 c68: -1 g_3_1 + 1 rdown_3 <= 0
 c69: -1 g_4_1 + 1 rdown_4 <= 0
 c70: -1 g_5_1 + 1 rdown_5 <= 0
 c71: 1 rup_1 <= 0
 c72: 1 rup_2 <= 0
 c73: 1 rup_3 <= 0
 c74: 1 rup_4 <= 0
 c75: 1 rup_5 <= 0
 c76: 1 rdown_1 <= 50
 c77: 1 rdown_2 <= 50
 c78: 1 rdown_3 <= 50
 c79: 1 rdown_4 <= 50
 c80: 1 rdown_5 <= 50
 c81: 1 g_1_1 - 1 f_1_1 - 1 f_2_1 = 0
 c82: 1 g_2_1 + 1 f_1_1 - 1 f_3_1 - 1 f_4_1 - 1 f_5_1 = 21.7
 c83: 1 g_3_1 + 1 f_3_1 - 1 f_6_1 = 94.2
 c84: 1 f_4_1 + 1 f_6_1 - 1 f_7_1 - 1 f_8_1 - 1 f_9_1 = 47.8
 c85: 1 f_2_1 + 1 f_5_1 + 1 f_7_1 - 1 f_10_1 = 7.6
 c86: 1 g_4_1 + 1 f_10_1 - 1 f_11_1 - 1 f_12_1 - 1 f_13_1 = 11.2
 c87: 1 f_8_1 - 1 f_14_1 - 1 f_15_1 = 0
 c88: 1 g_5_1 + 1 f_14_1 = 0
 c89: 1 f_9_1 + 1 f_15_1 - 1 f_16_1 - 1 f_17_1 = 29.5
 c90: 1 f_16_1 - 1 f_18_1 = 9
 c91: 1 f_11_1 + 1 f_18_1 = 3.5
 c92: 1 f_12_1 - 1 f_19_1 = 6.1
 c93: 1 f_13_1 + 1 f_19_1 - 1 f_20_1 = 13.8
 c94: 1 f_17_1 + 1 f_20_1 = 14.9
Bounds
 f_1_1 free
 f_2_1 free
 f_3_1 free
 f_4_1 free
 f_5_1 free
 f_6_1 free
 f_7_1 free
 f_8_1 free
 f_9_1 free
 f_10_1 free
 f_11_1 free
 f_12_1 free
 f_13_1 free
 f_14_1 free
 f_15_1 free
 f_16_1 free
 f_17_1 free
 f_18_1 free
 f_19_1 free
 f_20_1 free
 0 <= g_1_1 <= +inf
 0 <= g_2_1 <= +inf
 0 <= g_3_1 <= +inf
 0 <= g_4_1 <= +inf
 0 <= g_5_1 <= +inf
 0 <= delta_1_1 <= +inf
 0 <= delta_2_1 <= +inf
 0 <= delta_3_1 <= +inf
 0 <= delta_4_1 <= +inf
 0 <= delta_5_1 <= +inf
 0 <= delta_6_1 <= +inf
 0 <= delta_7_1 <= +inf
 0 <= delta_8_1 <= +inf
 0 <= delta_9_1 <= +inf
 0 <= delta_10_1 <= +inf
 0 <= delta_11_1 <= +inf
 0 <= delta_12_1 <= +inf
 0 <= delta_13_1 <= +inf
 0 <= delta_14_1 <= +inf
 theta_1_1 free
 theta_2_1 free
 theta_3_1 free
 theta_4_1 free
 theta_5_1 free
 theta_6_1 free
 theta_7_1 free
 theta_8_1 free
 theta_9_1 free
 theta_10_1 free
 theta_11_1 free
 theta_12_1 free
 theta_13_1 free
 theta_14_1 free
 0 <= rup_1 <= +inf
 0 <= rup_2 <= +inf
 0 <= rup_3 <= +inf
 0 <= rup_4 <= +inf
 0 <= rup_5 <= +inf
 0 <= rdown_1 <= +inf
 0 <= rdown_2 <= +inf
 0 <= rdown_3 <= +inf
 0 <= rdown_4 <= +inf
 0 <= rdown_5 <= +inf
General
End
