exemples/ieee/14_barras/dados/dispatch.log

  #-----------------------------------------#
  #              DISPATCH MODEL             #
  #-----------------------------------------#

  Execution date: 26-Sep-2018 20:05
  Directory:      D:\Mateus\Mestrado\2018-02\Eco_Energia\Modelo_Despacht\exemples\ieee\14_barras\dados\ 

  Loading inputs
     SDDP configuration
     Generators configuration
     Loads configuration
     Circuits configuration
     Buses configuration
